p cnf 1173
-17 -367
-18 -370
-19 -373
-20 -376
-21 -379
-22 -382
-23 -385
-24 -388
-25 -391
-26 -394
-27 -397
-28 -400
-29 -403
-30 -406
-31 -409
-32 -412
-33 413
-34 414
-35 415
-36 416
-37 417
-38 418
-39 419
-40 420
-41 421
-42 422
-43 -18
-43 -19
18 19 43
-44 -20
-44 -21
20 21 44
-45 -22
-45 -23
22 23 45
-46 -24
-46 -25
24 25 46
-47 -26
-47 -27
26 27 47
-48 -28
-48 -29
28 29 48
-49 -30
-49 -31
30 31 49
-50 -32
-50 -33
32 33 50
-51 -34
-51 -35
34 35 51
-52 -36
-52 -37
36 37 52
-53 -38
-53 -39
38 39 53
-54 -40
-54 -41
40 41 54
-55 43
-55 44
-43 -44 55
-56 45
-56 46
-45 -46 56
-57 47
-57 48
-47 -48 57
-58 49
-58 50
-49 -50 58
-59 51
-59 52
-51 -52 59
-60 53
-60 54
-53 -54 60
-61 55
-61 56
-55 -56 61
-62 57
-62 58
-57 -58 62
-63 59
-63 60
-59 -60 63
-64 61
-64 62
-61 -62 64
-65 -42
-65 63
42 -63 65
-66 64
-66 65
-64 -65 66
-67 -17
-67 18
17 -18 67
-68 17
-68 -18
-17 18 68
-69 -67
-69 -68
67 68 69
-70 17
-70 18
-17 -18 70
-71 -17
-71 -69
17 69 71
-72 17
-72 69
-17 -69 72
-73 -71
-73 -72
71 72 73
-74 17
-74 -69
-17 69 74
-75 -70
-75 -74
70 74 75
-76 -18
-76 19
18 -19 76
-77 18
-77 -19
-18 19 77
-78 -76
-78 -77
76 77 78
-79 18
-79 19
-18 -19 79
-80 75
-80 -78
-75 78 80
-81 -75
-81 78
75 -78 81
-82 -80
-82 -81
80 81 82
-83 -75
-83 -78
75 78 83
-84 -79
-84 -83
79 83 84
-85 -19
-85 20
19 -20 85
-86 19
-86 -20
-19 20 86
-87 -85
-87 -86
85 86 87
-88 19
-88 20
-19 -20 88
-89 84
-89 -87
-84 87 89
-90 -84
-90 87
84 -87 90
-91 -89
-91 -90
89 90 91
-92 -84
-92 -87
84 87 92
-93 -88
-93 -92
88 92 93
-94 -20
-94 21
20 -21 94
-95 20
-95 -21
-20 21 95
-96 -94
-96 -95
94 95 96
-97 20
-97 21
-20 -21 97
-98 93
-98 -96
-93 96 98
-99 -93
-99 96
93 -96 99
-100 -98
-100 -99
98 99 100
-101 -93
-101 -96
93 96 101
-102 -97
-102 -101
97 101 102
-103 -21
-103 22
21 -22 103
-104 21
-104 -22
-21 22 104
-105 -103
-105 -104
103 104 105
-106 21
-106 22
-21 -22 106
-107 102
-107 -105
-102 105 107
-108 -102
-108 105
102 -105 108
-109 -107
-109 -108
107 108 109
-110 -102
-110 -105
102 105 110
-111 -106
-111 -110
106 110 111
-112 -22
-112 23
22 -23 112
-113 22
-113 -23
-22 23 113
-114 -112
-114 -113
112 113 114
-115 22
-115 23
-22 -23 115
-116 111
-116 -114
-111 114 116
-117 -111
-117 114
111 -114 117
-118 -116
-118 -117
116 117 118
-119 -111
-119 -114
111 114 119
-120 -115
-120 -119
115 119 120
-121 -23
-121 24
23 -24 121
-122 23
-122 -24
-23 24 122
-123 -121
-123 -122
121 122 123
-124 23
-124 24
-23 -24 124
-125 120
-125 -123
-120 123 125
-126 -120
-126 123
120 -123 126
-127 -125
-127 -126
125 126 127
-128 -120
-128 -123
120 123 128
-129 -124
-129 -128
124 128 129
-130 -24
-130 25
24 -25 130
-131 24
-131 -25
-24 25 131
-132 -130
-132 -131
130 131 132
-133 24
-133 25
-24 -25 133
-134 129
-134 -132
-129 132 134
-135 -129
-135 132
129 -132 135
-136 -134
-136 -135
134 135 136
-137 -129
-137 -132
129 132 137
-138 -133
-138 -137
133 137 138
-139 -25
-139 26
25 -26 139
-140 25
-140 -26
-25 26 140
-141 -139
-141 -140
139 140 141
-142 25
-142 26
-25 -26 142
-143 138
-143 -141
-138 141 143
-144 -138
-144 141
138 -141 144
-145 -143
-145 -144
143 144 145
-146 -138
-146 -141
138 141 146
-147 -142
-147 -146
142 146 147
-148 -26
-148 27
26 -27 148
-149 26
-149 -27
-26 27 149
-150 -148
-150 -149
148 149 150
-151 26
-151 27
-26 -27 151
-152 147
-152 -150
-147 150 152
-153 -147
-153 150
147 -150 153
-154 -152
-154 -153
152 153 154
-155 -147
-155 -150
147 150 155
-156 -151
-156 -155
151 155 156
-157 -27
-157 28
27 -28 157
-158 27
-158 -28
-27 28 158
-159 -157
-159 -158
157 158 159
-160 27
-160 28
-27 -28 160
-161 156
-161 -159
-156 159 161
-162 -156
-162 159
156 -159 162
-163 -161
-163 -162
161 162 163
-164 -156
-164 -159
156 159 164
-165 -160
-165 -164
160 164 165
-166 -28
-166 29
28 -29 166
-167 28
-167 -29
-28 29 167
-168 -166
-168 -167
166 167 168
-169 28
-169 29
-28 -29 169
-170 165
-170 -168
-165 168 170
-171 -165
-171 168
165 -168 171
-172 -170
-172 -171
170 171 172
-173 -165
-173 -168
165 168 173
-174 -169
-174 -173
169 173 174
-175 -29
-175 30
29 -30 175
-176 29
-176 -30
-29 30 176
-177 -175
-177 -176
175 176 177
-178 29
-178 30
-29 -30 178
-179 174
-179 -177
-174 177 179
-180 -174
-180 177
174 -177 180
-181 -179
-181 -180
179 180 181
-182 -174
-182 -177
174 177 182
-183 -178
-183 -182
178 182 183
-184 -30
-184 31
30 -31 184
-185 30
-185 -31
-30 31 185
-186 -184
-186 -185
184 185 186
-187 30
-187 31
-30 -31 187
-188 183
-188 -186
-183 186 188
-189 -183
-189 186
183 -186 189
-190 -188
-190 -189
188 189 190
-191 -183
-191 -186
183 186 191
-192 -187
-192 -191
187 191 192
-193 -31
-193 32
31 -32 193
-194 31
-194 -32
-31 32 194
-195 -193
-195 -194
193 194 195
-196 31
-196 32
-31 -32 196
-197 192
-197 -195
-192 195 197
-198 -192
-198 195
192 -195 198
-199 -197
-199 -198
197 198 199
-200 -192
-200 -195
192 195 200
-201 -196
-201 -200
196 200 201
-202 -32
-202 33
32 -33 202
-203 32
-203 -33
-32 33 203
-204 -202
-204 -203
202 203 204
-205 32
-205 33
-32 -33 205
-206 201
-206 -204
-201 204 206
-207 -201
-207 204
201 -204 207
-208 -206
-208 -207
206 207 208
-209 -201
-209 -204
201 204 209
-210 -205
-210 -209
205 209 210
-211 -33
-211 34
33 -34 211
-212 33
-212 -34
-33 34 212
-213 -211
-213 -212
211 212 213
-214 33
-214 34
-33 -34 214
-215 210
-215 -213
-210 213 215
-216 -210
-216 213
210 -213 216
-217 -215
-217 -216
215 216 217
-218 -210
-218 -213
210 213 218
-219 -214
-219 -218
214 218 219
-220 -34
-220 35
34 -35 220
-221 34
-221 -35
-34 35 221
-222 -220
-222 -221
220 221 222
-223 34
-223 35
-34 -35 223
-224 219
-224 -222
-219 222 224
-225 -219
-225 222
219 -222 225
-226 -224
-226 -225
224 225 226
-227 -219
-227 -222
219 222 227
-228 -223
-228 -227
223 227 228
-229 -35
-229 36
35 -36 229
-230 35
-230 -36
-35 36 230
-231 -229
-231 -230
229 230 231
-232 35
-232 36
-35 -36 232
-233 228
-233 -231
-228 231 233
-234 -228
-234 231
228 -231 234
-235 -233
-235 -234
233 234 235
-236 -228
-236 -231
228 231 236
-237 -232
-237 -236
232 236 237
-238 -36
-238 37
36 -37 238
-239 36
-239 -37
-36 37 239
-240 -238
-240 -239
238 239 240
-241 36
-241 37
-36 -37 241
-242 237
-242 -240
-237 240 242
-243 -237
-243 240
237 -240 243
-244 -242
-244 -243
242 243 244
-245 -237
-245 -240
237 240 245
-246 -241
-246 -245
241 245 246
-247 -37
-247 38
37 -38 247
-248 37
-248 -38
-37 38 248
-249 -247
-249 -248
247 248 249
-250 37
-250 38
-37 -38 250
-251 246
-251 -249
-246 249 251
-252 -246
-252 249
246 -249 252
-253 -251
-253 -252
251 252 253
-254 -246
-254 -249
246 249 254
-255 -250
-255 -254
250 254 255
-256 -38
-256 39
38 -39 256
-257 38
-257 -39
-38 39 257
-258 -256
-258 -257
256 257 258
-259 38
-259 39
-38 -39 259
-260 255
-260 -258
-255 258 260
-261 -255
-261 258
255 -258 261
-262 -260
-262 -261
260 261 262
-263 -255
-263 -258
255 258 263
-264 -259
-264 -263
259 263 264
-265 -39
-265 40
39 -40 265
-266 39
-266 -40
-39 40 266
-267 -265
-267 -266
265 266 267
-268 39
-268 40
-39 -40 268
-269 264
-269 -267
-264 267 269
-270 -264
-270 267
264 -267 270
-271 -269
-271 -270
269 270 271
-272 -264
-272 -267
264 267 272
-273 -268
-273 -272
268 272 273
-274 -40
-274 41
40 -41 274
-275 40
-275 -41
-40 41 275
-276 -274
-276 -275
274 275 276
-277 40
-277 41
-40 -41 277
-278 273
-278 -276
-273 276 278
-279 -273
-279 276
273 -276 279
-280 -278
-280 -279
278 279 280
-281 -273
-281 -276
273 276 281
-282 -277
-282 -281
277 281 282
-283 -41
-283 42
41 -42 283
-284 41
-284 -42
-41 42 284
-285 -283
-285 -284
283 284 285
-286 41
-286 42
-41 -42 286
-287 282
-287 -285
-282 285 287
-288 -282
-288 285
282 -285 288
-289 -287
-289 -288
287 288 289
-290 -282
-290 -285
282 285 290
-291 -286
-291 -290
286 290 291
-292 17
-292 -73
-17 73 292
-293 -17
-293 19
17 -19 293
-294 -292
-294 -293
292 293 294
-295 17
-295 -82
-17 82 295
-296 -17
-296 20
17 -20 296
-297 -295
-297 -296
295 296 297
-298 17
-298 -91
-17 91 298
-299 -17
-299 21
17 -21 299
-300 -298
-300 -299
298 299 300
-301 17
-301 -100
-17 100 301
-302 -17
-302 22
17 -22 302
-303 -301
-303 -302
301 302 303
-304 17
-304 -109
-17 109 304
-305 -17
-305 23
17 -23 305
-306 -304
-306 -305
304 305 306
-307 17
-307 -118
-17 118 307
-308 -17
-308 24
17 -24 308
-309 -307
-309 -308
307 308 309
-310 17
-310 -127
-17 127 310
-311 -17
-311 25
17 -25 311
-312 -310
-312 -311
310 311 312
-313 17
-313 -136
-17 136 313
-314 -17
-314 26
17 -26 314
-315 -313
-315 -314
313 314 315
-316 17
-316 -145
-17 145 316
-317 -17
-317 27
17 -27 317
-318 -316
-318 -317
316 317 318
-319 17
-319 -154
-17 154 319
-320 -17
-320 28
17 -28 320
-321 -319
-321 -320
319 320 321
-322 17
-322 -163
-17 163 322
-323 -17
-323 29
17 -29 323
-324 -322
-324 -323
322 323 324
-325 17
-325 -172
-17 172 325
-326 -17
-326 30
17 -30 326
-327 -325
-327 -326
325 326 327
-328 17
-328 -181
-17 181 328
-329 -17
-329 31
17 -31 329
-330 -328
-330 -329
328 329 330
-331 17
-331 -190
-17 190 331
-332 -17
-332 32
17 -32 332
-333 -331
-333 -332
331 332 333
-334 17
-334 -199
-17 199 334
-335 -17
-335 33
17 -33 335
-336 -334
-336 -335
334 335 336
-337 17
-337 -208
-17 208 337
-338 -17
-338 34
17 -34 338
-339 -337
-339 -338
337 338 339
-340 17
-340 -217
-17 217 340
-341 -17
-341 35
17 -35 341
-342 -340
-342 -341
340 341 342
-343 17
-343 -226
-17 226 343
-344 -17
-344 36
17 -36 344
-345 -343
-345 -344
343 344 345
-346 17
-346 -235
-17 235 346
-347 -17
-347 37
17 -37 347
-348 -346
-348 -347
346 347 348
-349 17
-349 -244
-17 244 349
-350 -17
-350 38
17 -38 350
-351 -349
-351 -350
349 350 351
-352 17
-352 -253
-17 253 352
-353 -17
-353 39
17 -39 353
-354 -352
-354 -353
352 353 354
-355 17
-355 -262
-17 262 355
-356 -17
-356 40
17 -40 356
-357 -355
-357 -356
355 356 357
-358 17
-358 -271
-17 271 358
-359 -17
-359 41
17 -41 359
-360 -358
-360 -359
358 359 360
-361 17
-361 -280
-17 280 361
-362 -17
-362 42
17 -42 362
-363 -361
-363 -362
361 362 363
-364 17
-364 -289
-17 289 364
-365 1
-365 66
-1 -66 365
-366 -66
-366 67
66 -67 366
-367 -365
-367 -366
365 366 367
-368 2
-368 66
-2 -66 368
-369 -66
-369 -294
66 294 369
-370 -368
-370 -369
368 369 370
-371 3
-371 66
-3 -66 371
-372 -66
-372 -297
66 297 372
-373 -371
-373 -372
371 372 373
-374 4
-374 66
-4 -66 374
-375 -66
-375 -300
66 300 375
-376 -374
-376 -375
374 375 376
-377 5
-377 66
-5 -66 377
-378 -66
-378 -303
66 303 378
-379 -377
-379 -378
377 378 379
-380 6
-380 66
-6 -66 380
-381 -66
-381 -306
66 306 381
-382 -380
-382 -381
380 381 382
-383 7
-383 66
-7 -66 383
-384 -66
-384 -309
66 309 384
-385 -383
-385 -384
383 384 385
-386 8
-386 66
-8 -66 386
-387 -66
-387 -312
66 312 387
-388 -386
-388 -387
386 387 388
-389 9
-389 66
-9 -66 389
-390 -66
-390 -315
66 315 390
-391 -389
-391 -390
389 390 391
-392 10
-392 66
-10 -66 392
-393 -66
-393 -318
66 318 393
-394 -392
-394 -393
392 393 394
-395 11
-395 66
-11 -66 395
-396 -66
-396 -321
66 321 396
-397 -395
-397 -396
395 396 397
-398 12
-398 66
-12 -66 398
-399 -66
-399 -324
66 324 399
-400 -398
-400 -399
398 399 400
-401 13
-401 66
-13 -66 401
-402 -66
-402 -327
66 327 402
-403 -401
-403 -402
401 402 403
-404 14
-404 66
-14 -66 404
-405 -66
-405 -330
66 330 405
-406 -404
-406 -405
404 405 406
-407 15
-407 66
-15 -66 407
-408 -66
-408 -333
66 333 408
-409 -407
-409 -408
407 408 409
-410 16
-410 66
-16 -66 410
-411 -66
-411 -336
66 336 411
-412 -410
-412 -411
410 411 412
-413 -66
-413 -339
66 339 413
-414 -66
-414 -342
66 342 414
-415 -66
-415 -345
66 345 415
-416 -66
-416 -348
66 348 416
-417 -66
-417 -351
66 351 417
-418 -66
-418 -354
66 354 418
-419 -66
-419 -357
66 357 419
-420 -66
-420 -360
66 360 420
-421 -66
-421 -363
66 363 421
-422 -66
-422 364
66 -364 422
-423 -42
-423 291
42 -291 423
-424 17
-424 -423
-17 423 424
424
